Pt bulk
   1.000
     3.97675   0.00000   0.00000
     0.00000   3.97675   0.00000
     0.00000   0.00000   3.97675
   Pt
   4
Direct
  +0.000000000000000e+00  +0.000000000000000e+00  +0.000000000000000e+00
  +0.000000000000000e+00  +5.000000000000000e-01  +5.000000000000000e-01
  +5.000000000000000e-01  +0.000000000000000e+00  +5.000000000000000e-01
  +5.000000000000000e-01  +5.000000000000000e-01  +0.000000000000000e+00
