System = Pd3Co2Pd3

# Parallelization
  KPAR     = 4
  NPAR     = 7

# General
  ISTART   = 0        # Job: 0-new  1-cont  2-samecut
  ICHARG   = 2        # initial charge density: 1-file 2-atom 10-cons 11-DOS
  LWAVE    = FALSE.   # write WAVECAR
  LORBIT   = 11       # Write DOSCAR and lm-decomposed PROCAR
  LORBMOM  = TRUE.    # Orbital Moment

# Magnetism
  ISPIN    = 2        # Spin polarize: 1-No 2-Yes
  MAGMOM   = 3*0.5 2*3.0 3*0.5 

# Precision
  PREC     = Accurate # Options: Normal or Accurate
  ENCUT    = 500      # Kinetic energy cutoff in eV (default = max(ENMAX))
  ISMEAR   = 0        # Partial occupancies for each orbital (check doc to use!)
  SIGMA    = 0.03     # Width of the smearing in eV (0.03~0.05)

# Electronic relaxation (ESC)
  NELM     = 200      # Max number of ESC steps
  EDIFF    = 1e-6     # Stopping criteria for ESC in eV (default = 1e-4)

# Ionic relaxation (ISC)
  NSW      = 200      # Max number of ISC steps: 0- Single Point
  EDIFFG   = -1e-2    # Stopping criteria for ISC (default = EDIFF*10)
  IBRION   = 2        # Ionic relaxation method: 1-RMMDISS 2-CG
  ISIF     = 3        # Stress and relaxation: 2-ions 3-all (default = 2)

