K-Spacing Value to Generate K-Mesh: 0.020
0
Gamma
24  24  1
0.0  0.0  0.0
