Pd6Co6
2.753230221
    0.86602540378443860  -0.50000000000000000  0.00000000000000000
    0.86602540378443860   0.50000000000000000  0.00000000000000000
    0.00000000000000000   0.00000000000000000  14.4296083118896070
Pd Co 
 6  6
Direct
    0.00000000000000000    0.00000000000000000    0.19904638092100038
    0.33333333333333330    0.33333333333333330    0.25563118650127070
    0.66666666666666660    0.66666666666666660    0.31221599208154105
    0.00000000000000000    0.00000000000000000    0.36880079766181134
    0.33333333333333330    0.33333333333333330    0.42538560324208170
    0.66666666666666660    0.66666666666666660    0.48197040882235204
    0.00000000000000000    0.00000000000000000    0.53269075062405820
    0.33333333333333330    0.33333333333333330    0.58341109242576450
    0.00000000000000000    0.00000000000000000    0.63413143422747060
    0.33333333333333330    0.33333333333333330    0.68485177602917680
    0.00000000000000000    0.00000000000000000    0.73557211783088320
    0.33333333333333330    0.33333333333333330    0.78629245963258930
